
Gurobi 6.5.2 (linux64) logging started Mon Aug 29 10:57:53 2016

Optimize a model with 101 rows, 663 columns and 1327 nonzeros
Coefficient statistics:
  Matrix range    [1e+00, 2e+00]
  Objective range [1e+00, 1e+02]
  Bounds range    [1e+00, 1e+00]
  RHS range       [1e+00, 1e+00]
Found heuristic solution: objective 2137
Presolve removed 51 rows and 50 columns
Presolve time: 0.00s
Presolved: 50 rows, 613 columns, 1226 nonzeros
Variable types: 0 continuous, 613 integer (613 binary)

Root relaxation: objective 7.690000e+02, 70 iterations, 0.00 seconds

    Nodes    |    Current Node    |     Objective Bounds      |     Work
 Expl Unexpl |  Obj  Depth IntInf | Incumbent    BestBd   Gap | It/Node Time

*    0     0               0     769.0000000  769.00000  0.00%     -    0s

Explored 0 nodes (70 simplex iterations) in 0.00 seconds
Thread count was 8 (of 8 available processors)

Optimal solution found (tolerance 1.00e-04)
Best objective 7.690000000000e+02, best bound 7.690000000000e+02, gap 0.0%
